
Welcome to IBM(R) ILOG(R) CPLEX(R) Interactive Optimizer 22.1.1.0
  with Simplex, Mixed Integer & Barrier Optimizers
5725-A06 5725-A29 5724-Y48 5724-Y49 5724-Y54 5724-Y55 5655-Y21
Copyright IBM Corp. 1988, 2022.  All Rights Reserved.

Type 'help' for a list of available commands.
Type 'help' followed by a command name for more
information on commands.

CPLEX> Selected objective sense:  MINIMIZE
Selected objective  name:  00000000
Selected RHS        name:  RHS1
Selected bound      name:  BOUND
Problem 'ee.mps' read.
Read time = 0.03 sec. (3.17 ticks)
CPLEX> New value for time limit in seconds: 7200
CPLEX> New value for parallel optimization mode: -1
CPLEX> New value for default parallel thread count: 40
CPLEX> New value for mixed integer optimality gap tolerance: 1e-13
CPLEX> Version identifier: 22.1.1.0 | 2022-11-28 | 9160aff4d
CPXPARAM_Threads                                 40
CPXPARAM_Parallel                                -1
CPXPARAM_TimeLimit                               7200
CPXPARAM_MIP_Tolerances_MIPGap                   1e-13
Found incumbent of value 0.000000 after 0.00 sec. (0.31 ticks)
Tried aggregator 2 times.
MIP Presolve eliminated 183 rows and 2745 columns.
MIP Presolve modified 6090 coefficients.
Aggregator did 713 substitutions.
Reduced MIP has 3636 rows, 7840 columns, and 28952 nonzeros.
Reduced MIP has 7840 binaries, 0 generals, 0 SOSs, and 0 indicators.
Presolve time = 0.08 sec. (69.13 ticks)
Probing time = 0.03 sec. (6.05 ticks)
Tried aggregator 1 time.
Detecting symmetries...
Reduced MIP has 3636 rows, 7840 columns, and 28952 nonzeros.
Reduced MIP has 7840 binaries, 0 generals, 0 SOSs, and 0 indicators.
Presolve time = 0.03 sec. (22.08 ticks)
Probing time = 0.02 sec. (5.80 ticks)
Clique table members: 18787.
MIP emphasis: balance optimality and feasibility.
MIP search method: dynamic search.
Parallel mode: opportunistic, using up to 40 threads.
Root relaxation solution time = 0.10 sec. (83.46 ticks)

        Nodes                                         Cuts/
   Node  Left     Objective  IInf  Best Integer    Best Bound    ItCnt     Gap

*     0+    0                            0.0000  -1.54000e+13              --- 
*     0+    0                      -6.98000e+12  -1.54000e+13           120.63%
      0     0  -1.53900e+13   100  -6.98000e+12  -1.53900e+13     2115  120.49%
*     0+    0                      -1.53900e+13  -1.53900e+13             0.00%
      0     0  -1.53900e+13   190  -1.53900e+13      Cuts: 86     2487    0.00%
*     0+    0                      -1.53900e+13  -1.53900e+13             0.00%
      0     0  -1.53900e+13   232  -1.53900e+13      Cuts: 76     2894    0.00%
*     0+    0                      -1.53900e+13  -1.53900e+13             0.00%
*     0+    0                      -1.53900e+13  -1.53900e+13             0.00%
*     0+    0                      -1.53900e+13  -1.53900e+13             0.00%
*     0+    0                      -1.53900e+13  -1.53900e+13             0.00%
      0     0  -1.00000e+75     0  -1.53900e+13  -1.53900e+13     2894    0.00%
      0    28    infeasible        -1.53900e+13  -1.53900e+13    20302    0.00%
Elapsed time = 2.13 sec. (962.42 ticks, tree = 0.02 MB, solutions = 12)
*   266    93      integral     0  -1.53900e+13  -1.53900e+13    70228    0.00%
    286    83  -1.53900e+13    41  -1.53900e+13  -1.53900e+13    68780    0.00%
   1192    87  -1.53900e+13    82  -1.53900e+13  -1.53900e+13    70726    0.00%
*  2509+   33                      -1.53900e+13  -1.53900e+13             0.00%
   2809    76  -1.53900e+13   189  -1.53900e+13  -1.53900e+13    69647    0.00%
   4261   168  -1.53900e+13   104  -1.53900e+13  -1.53900e+13   151229    0.00%
*  5097+  269                      -1.53900e+13  -1.53900e+13             0.00%
   5430   191        cutoff        -1.53900e+13  -1.53900e+13   139960    0.00%
   6427   110        cutoff        -1.53900e+13  -1.53900e+13   350644    0.00%
   7297    65  -1.53900e+13    66  -1.53900e+13  -1.53900e+13   368595    0.00%
   8061    68        cutoff        -1.53900e+13  -1.53900e+13   369494    0.00%
   8483    97  -1.53900e+13   109  -1.53900e+13  -1.53900e+13   373563    0.00%

GUB cover cuts applied:  1
Clique cuts applied:  10
Cover cuts applied:  491
Flow cuts applied:  3
Mixed integer rounding cuts applied:  4
Zero-half cuts applied:  10
Lift and project cuts applied:  8
Gomory fractional cuts applied:  14

Root node processing (before b&c):
  Real time             =    1.06 sec. (955.60 ticks)
Parallel b&c, 40 threads:
  Real time             =    4.57 sec. (2251.75 ticks)
  Sync time (average)   =    1.57 sec.
  Wait time (average)   =    0.00 sec.
                          ------------
Total (root+branch&cut) =    5.64 sec. (3207.36 ticks)

Solution pool: 32 solutions saved.

MIP - Integer optimal solution:  Objective = -1.5389998689e+13
Solution time =    5.75 sec.  Iterations = 417453  Nodes = 8537
Deterministic time = 3207.39 ticks  (558.10 ticks/sec)

CPLEX> Solution 'p33' written to file 'ee.sol'.
CPLEX> 